maximize
obj: 1 x_1,1,2_ + 1 x_1,1,4_ + 1 x_1,2,3_ + 1 x_1,3,2_ + 1 x_1,4,1_ + 1 x_1,4,4_ + 1 x_1,5,2_ + 1 x_1,5,3_ + 1 x_1,5,4_ + 1 x_1,5,5_ + 1 x_2,1,4_ + 1 x_2,2,4_ + 1 x_2,2,5_ + 1 x_2,3,4_ + 1 x_2,3,5_ + 1 x_2,4,4_ + 1 x_2,4,5_ + 1 x_2,5,3_ + 1 x_2,5,4_ + 1 x_2,5,5_ + 1 x_3,1,2_ + 1 x_3,2,2_ + 1 x_3,3,2_ + 1 x_3,4,2_ + 1 x_3,5,2_ + 1 x_4,1,2_ + 1 x_4,1,4_ + 1 x_4,2,2_ + 1 x_4,2,3_ + 1 x_4,3,2_ + 1 x_4,4,2_ + 1 x_4,5,2_ + 1 x_4,5,4_
subject to
c2_1,1_: 1 x_1,1,1_ + 1 x_2,1,1_ + 1 x_3,1,1_ + 1 x_4,1,1_ <= 3
c2_2,1_: 1 x_1,2,1_ + 1 x_2,2,1_ + 1 x_3,2,1_ + 1 x_4,2,1_ <= 3
c2_3,1_: 1 x_1,3,1_ + 1 x_2,3,1_ + 1 x_3,3,1_ + 1 x_4,3,1_ <= 3
c2_4,1_: 1 x_1,4,1_ + 1 x_2,4,1_ + 1 x_3,4,1_ + 1 x_4,4,1_ <= 3
c2_5,1_: 1 x_1,5,1_ + 1 x_2,5,1_ + 1 x_3,5,1_ + 1 x_4,5,1_ <= 3
c2_1,2_: 1 x_1,1,2_ + 1 x_2,1,2_ + 1 x_3,1,2_ + 1 x_4,1,2_ <= 3
c2_2,2_: 1 x_1,2,2_ + 1 x_2,2,2_ + 1 x_3,2,2_ + 1 x_4,2,2_ <= 3
c2_3,2_: 1 x_1,3,2_ + 1 x_2,3,2_ + 1 x_3,3,2_ + 1 x_4,3,2_ <= 3
c2_4,2_: 1 x_1,4,2_ + 1 x_2,4,2_ + 1 x_3,4,2_ + 1 x_4,4,2_ <= 3
c2_5,2_: 1 x_1,5,2_ + 1 x_2,5,2_ + 1 x_3,5,2_ + 1 x_4,5,2_ <= 3
c2_1,3_: 1 x_1,1,3_ + 1 x_2,1,3_ + 1 x_3,1,3_ + 1 x_4,1,3_ <= 3
c2_2,3_: 1 x_1,2,3_ + 1 x_2,2,3_ + 1 x_3,2,3_ + 1 x_4,2,3_ <= 3
c2_3,3_: 1 x_1,3,3_ + 1 x_2,3,3_ + 1 x_3,3,3_ + 1 x_4,3,3_ <= 3
c2_4,3_: 1 x_1,4,3_ + 1 x_2,4,3_ + 1 x_3,4,3_ + 1 x_4,4,3_ <= 3
c2_5,3_: 1 x_1,5,3_ + 1 x_2,5,3_ + 1 x_3,5,3_ + 1 x_4,5,3_ <= 3
c2_1,4_: 1 x_1,1,4_ + 1 x_2,1,4_ + 1 x_3,1,4_ + 1 x_4,1,4_ <= 3
c2_2,4_: 1 x_1,2,4_ + 1 x_2,2,4_ + 1 x_3,2,4_ + 1 x_4,2,4_ <= 3
c2_3,4_: 1 x_1,3,4_ + 1 x_2,3,4_ + 1 x_3,3,4_ + 1 x_4,3,4_ <= 3
c2_4,4_: 1 x_1,4,4_ + 1 x_2,4,4_ + 1 x_3,4,4_ + 1 x_4,4,4_ <= 3
c2_5,4_: 1 x_1,5,4_ + 1 x_2,5,4_ + 1 x_3,5,4_ + 1 x_4,5,4_ <= 3
c2_1,5_: 1 x_1,1,5_ + 1 x_2,1,5_ + 1 x_3,1,5_ + 1 x_4,1,5_ <= 3
c2_2,5_: 1 x_1,2,5_ + 1 x_2,2,5_ + 1 x_3,2,5_ + 1 x_4,2,5_ <= 3
c2_3,5_: 1 x_1,3,5_ + 1 x_2,3,5_ + 1 x_3,3,5_ + 1 x_4,3,5_ <= 3
c2_4,5_: 1 x_1,4,5_ + 1 x_2,4,5_ + 1 x_3,4,5_ + 1 x_4,4,5_ <= 3
c2_5,5_: 1 x_1,5,5_ + 1 x_2,5,5_ + 1 x_3,5,5_ + 1 x_4,5,5_ <= 3
c1_1_: 1 x_1,1,1_ + 1 x_1,2,1_ + 1 x_1,3,1_ + 1 x_1,4,1_ + 1 x_1,5,1_ + 1 x_1,1,2_ + 1 x_1,2,2_ + 1 x_1,3,2_ + 1 x_1,4,2_ + 1 x_1,5,2_ + 1 x_1,1,3_ + 1 x_1,2,3_ + 1 x_1,3,3_ + 1 x_1,4,3_ + 1 x_1,5,3_ + 1 x_1,1,4_ + 1 x_1,2,4_ + 1 x_1,3,4_ + 1 x_1,4,4_ + 1 x_1,5,4_ + 1 x_1,1,5_ + 1 x_1,2,5_ + 1 x_1,3,5_ + 1 x_1,4,5_ + 1 x_1,5,5_ >= 7
c1_2_: 1 x_2,1,1_ + 1 x_2,2,1_ + 1 x_2,3,1_ + 1 x_2,4,1_ + 1 x_2,5,1_ + 1 x_2,1,2_ + 1 x_2,2,2_ + 1 x_2,3,2_ + 1 x_2,4,2_ + 1 x_2,5,2_ + 1 x_2,1,3_ + 1 x_2,2,3_ + 1 x_2,3,3_ + 1 x_2,4,3_ + 1 x_2,5,3_ + 1 x_2,1,4_ + 1 x_2,2,4_ + 1 x_2,3,4_ + 1 x_2,4,4_ + 1 x_2,5,4_ + 1 x_2,1,5_ + 1 x_2,2,5_ + 1 x_2,3,5_ + 1 x_2,4,5_ + 1 x_2,5,5_ >= 5
c1_3_: 1 x_3,1,1_ + 1 x_3,2,1_ + 1 x_3,3,1_ + 1 x_3,4,1_ + 1 x_3,5,1_ + 1 x_3,1,2_ + 1 x_3,2,2_ + 1 x_3,3,2_ + 1 x_3,4,2_ + 1 x_3,5,2_ + 1 x_3,1,3_ + 1 x_3,2,3_ + 1 x_3,3,3_ + 1 x_3,4,3_ + 1 x_3,5,3_ + 1 x_3,1,4_ + 1 x_3,2,4_ + 1 x_3,3,4_ + 1 x_3,4,4_ + 1 x_3,5,4_ + 1 x_3,1,5_ + 1 x_3,2,5_ + 1 x_3,3,5_ + 1 x_3,4,5_ + 1 x_3,5,5_ >= 5
c1_4_: 1 x_4,1,1_ + 1 x_4,2,1_ + 1 x_4,3,1_ + 1 x_4,4,1_ + 1 x_4,5,1_ + 1 x_4,1,2_ + 1 x_4,2,2_ + 1 x_4,3,2_ + 1 x_4,4,2_ + 1 x_4,5,2_ + 1 x_4,1,3_ + 1 x_4,2,3_ + 1 x_4,3,3_ + 1 x_4,4,3_ + 1 x_4,5,3_ + 1 x_4,1,4_ + 1 x_4,2,4_ + 1 x_4,3,4_ + 1 x_4,4,4_ + 1 x_4,5,4_ + 1 x_4,1,5_ + 1 x_4,2,5_ + 1 x_4,3,5_ + 1 x_4,4,5_ + 1 x_4,5,5_ >= 3
Bounds
x_1,1,1_ <= 0
x_2,1,1_ <= 0
x_3,1,1_ <= 0
x_4,1,1_ <= 0
x_1,2,1_ <= 0
x_2,2,1_ <= 0
x_3,2,1_ <= 0
x_4,2,1_ <= 0
x_1,3,1_ <= 0
x_2,3,1_ <= 0
x_3,3,1_ <= 0
x_4,3,1_ <= 0
x_1,4,1_ <= 1
x_2,4,1_ <= 0
x_3,4,1_ <= 0
x_4,4,1_ <= 0
x_1,5,1_ <= 0
x_2,5,1_ <= 0
x_3,5,1_ <= 0
x_4,5,1_ <= 0
x_1,1,2_ <= 1
x_2,1,2_ <= 0
x_3,1,2_ <= 1
x_4,1,2_ <= 1
x_1,2,2_ <= 0
x_2,2,2_ <= 0
x_3,2,2_ <= 1
x_4,2,2_ <= 1
x_1,3,2_ <= 1
x_2,3,2_ <= 0
x_3,3,2_ <= 1
x_4,3,2_ <= 1
x_1,4,2_ <= 0
x_2,4,2_ <= 0
x_3,4,2_ <= 1
x_4,4,2_ <= 1
x_1,5,2_ <= 1
x_2,5,2_ <= 0
x_3,5,2_ <= 1
x_4,5,2_ <= 1
x_1,1,3_ <= 0
x_2,1,3_ <= 0
x_3,1,3_ <= 0
x_4,1,3_ <= 0
x_1,2,3_ <= 1
x_2,2,3_ <= 0
x_3,2,3_ <= 0
x_4,2,3_ <= 1
x_1,3,3_ <= 0
x_2,3,3_ <= 0
x_3,3,3_ <= 0
x_4,3,3_ <= 0
x_1,4,3_ <= 0
x_2,4,3_ <= 0
x_3,4,3_ <= 0
x_4,4,3_ <= 0
x_1,5,3_ <= 1
x_2,5,3_ <= 1
x_3,5,3_ <= 0
x_4,5,3_ <= 0
x_1,1,4_ <= 1
x_2,1,4_ <= 1
x_3,1,4_ <= 0
x_4,1,4_ <= 1
x_1,2,4_ <= 0
x_2,2,4_ <= 1
x_3,2,4_ <= 0
x_4,2,4_ <= 0
x_1,3,4_ <= 0
x_2,3,4_ <= 1
x_3,3,4_ <= 0
x_4,3,4_ <= 0
x_1,4,4_ <= 1
x_2,4,4_ <= 1
x_3,4,4_ <= 0
x_4,4,4_ <= 0
x_1,5,4_ <= 1
x_2,5,4_ <= 1
x_3,5,4_ <= 0
x_4,5,4_ <= 1
x_1,1,5_ <= 0
x_2,1,5_ <= 0
x_3,1,5_ <= 0
x_4,1,5_ <= 0
x_1,2,5_ <= 0
x_2,2,5_ <= 1
x_3,2,5_ <= 0
x_4,2,5_ <= 0
x_1,3,5_ <= 0
x_2,3,5_ <= 1
x_3,3,5_ <= 0
x_4,3,5_ <= 0
x_1,4,5_ <= 0
x_2,4,5_ <= 1
x_3,4,5_ <= 0
x_4,4,5_ <= 0
x_1,5,5_ <= 1
x_2,5,5_ <= 1
x_3,5,5_ <= 0
x_4,5,5_ <= 0
Binary
x_1,1,1_
x_2,1,1_
x_3,1,1_
x_4,1,1_
x_1,2,1_
x_2,2,1_
x_3,2,1_
x_4,2,1_
x_1,3,1_
x_2,3,1_
x_3,3,1_
x_4,3,1_
x_1,4,1_
x_2,4,1_
x_3,4,1_
x_4,4,1_
x_1,5,1_
x_2,5,1_
x_3,5,1_
x_4,5,1_
x_1,1,2_
x_2,1,2_
x_3,1,2_
x_4,1,2_
x_1,2,2_
x_2,2,2_
x_3,2,2_
x_4,2,2_
x_1,3,2_
x_2,3,2_
x_3,3,2_
x_4,3,2_
x_1,4,2_
x_2,4,2_
x_3,4,2_
x_4,4,2_
x_1,5,2_
x_2,5,2_
x_3,5,2_
x_4,5,2_
x_1,1,3_
x_2,1,3_
x_3,1,3_
x_4,1,3_
x_1,2,3_
x_2,2,3_
x_3,2,3_
x_4,2,3_
x_1,3,3_
x_2,3,3_
x_3,3,3_
x_4,3,3_
x_1,4,3_
x_2,4,3_
x_3,4,3_
x_4,4,3_
x_1,5,3_
x_2,5,3_
x_3,5,3_
x_4,5,3_
x_1,1,4_
x_2,1,4_
x_3,1,4_
x_4,1,4_
x_1,2,4_
x_2,2,4_
x_3,2,4_
x_4,2,4_
x_1,3,4_
x_2,3,4_
x_3,3,4_
x_4,3,4_
x_1,4,4_
x_2,4,4_
x_3,4,4_
x_4,4,4_
x_1,5,4_
x_2,5,4_
x_3,5,4_
x_4,5,4_
x_1,1,5_
x_2,1,5_
x_3,1,5_
x_4,1,5_
x_1,2,5_
x_2,2,5_
x_3,2,5_
x_4,2,5_
x_1,3,5_
x_2,3,5_
x_3,3,5_
x_4,3,5_
x_1,4,5_
x_2,4,5_
x_3,4,5_
x_4,4,5_
x_1,5,5_
x_2,5,5_
x_3,5,5_
x_4,5,5_
End
